s td 24 3 26
b 1 1 2 14
b 2 2 14 15
b 3 2 3 15
b 4 3 15 16
b 5 3 4 16
b 6 4 16 17
b 7 4 5 17
b 8 5 17 18
b 9 5 6 18
b 10 6 18 19
b 11 6 7 19
b 12 7 19 20
b 13 7 8 20
b 14 8 20 21
b 15 8 9 21
b 16 9 21 22
b 17 9 10 22
b 18 10 22 23
b 19 10 11 23
b 20 11 23 24
b 21 11 12 24
b 22 12 24 25
b 23 12 13 25
b 24 13 25 26
1 2
2 3
3 4
4 5
5 6
6 7
7 8
8 9
9 10
10 11
11 12
12 13
13 14
14 15
15 16
16 17
17 18
18 19
19 20
20 21
21 22
22 23
23 24
